% Logging successfully configured
%%%mzn-stat: initTime=0.004454017
%%%mzn-stat: objective=570
%%%mzn-stat: nodes=618
%%%mzn-stat: restarts=0
%%%mzn-stat: peakDepth=176
%%%mzn-stat: solveTime=0.006156061
%%%mzn-stat: variables=370
%%%mzn-stat: propagators=252
%%%mzn-stat: failures=65
%%%mzn-stat: propagations=3815
%%%mzn-stat: nogoods=65
%%%mzn-stat: numAtomicConstraintsPropagated=0
%%%mzn-stat: allDifferentNumber1TotalHallSetSize=217
%%%mzn-stat: allDifferentNumber1NumberOfConflicts=65
%%%mzn-stat: allDifferentNumber1MaxHallSetSize=20
%%%mzn-stat: allDifferentNumber1PropagationsTotal=699
%%%mzn-stat: allDifferentNumber1PropagationsThatFoundConflict=65
%%%mzn-stat: circuitNumber2PropagationsThatFoundConflict=0
%%%mzn-stat: circuitNumber2TotalFixedEdgesAtConflict=0
%%%mzn-stat: circuitNumber2NumberOfConflicts=0
%%%mzn-stat: circuitNumber2PropagationsThatPruned=0
%%%mzn-stat: circuitNumber2PropagationsTotal=398
%%%mzn-stat: AverageConflictSize=2.723076923076923
%%%mzn-stat: NumUnitNogoodsLearned=0
%%%mzn-stat: AverageLearnedNogoodLength=2.723076923076923
%%%mzn-stat: AverageBacktrackAmount=0
%%%mzn-stat: AverageLbd=2.723076923076923
%%%mzn-stat: 2AutonomousSearchNumBackupCalled=157
%%%mzn-stat: 2AutonomousSearchNumPredicatesRemoved=0
%%%mzn-stat: 2AutonomousSearchNumCalls=158
%%%mzn-stat: 2AutonomousSearchNumPredicatesAdded=101
%%%mzn-stat: 2AutonomousSearchAverageSizeOfHeap=0.6392405063291139
%%%mzn-stat: 2AutonomousSearchNumAssignedPredicatesEncountered=101
%%%mzn-stat-end
maxleg = 570;
succ = array1d(1..20,[2, 3, 6, 5, 8, 7, 4, 9, 14, 20, 12, 10, 11, 18, 13, 15, 16, 19, 17, 1]);
% time elapsed: 0.23 s
----------
%%%mzn-stat: initTime=0.004454017
%%%mzn-stat: objective=567
%%%mzn-stat: nodes=887
%%%mzn-stat: restarts=0
%%%mzn-stat: peakDepth=176
%%%mzn-stat: solveTime=0.009197172
%%%mzn-stat: variables=370
%%%mzn-stat: propagators=252
%%%mzn-stat: failures=98
%%%mzn-stat: propagations=5023
%%%mzn-stat: nogoods=98
%%%mzn-stat: numAtomicConstraintsPropagated=0
%%%mzn-stat: allDifferentNumber1TotalHallSetSize=413
%%%mzn-stat: allDifferentNumber1NumberOfConflicts=98
%%%mzn-stat: allDifferentNumber1MaxHallSetSize=20
%%%mzn-stat: allDifferentNumber1PropagationsTotal=908
%%%mzn-stat: allDifferentNumber1PropagationsThatFoundConflict=98
%%%mzn-stat: circuitNumber2PropagationsThatFoundConflict=0
%%%mzn-stat: circuitNumber2TotalFixedEdgesAtConflict=0
%%%mzn-stat: circuitNumber2NumberOfConflicts=0
%%%mzn-stat: circuitNumber2PropagationsThatPruned=3
%%%mzn-stat: circuitNumber2PropagationsTotal=496
%%%mzn-stat: AverageConflictSize=4.010204081632653
%%%mzn-stat: NumUnitNogoodsLearned=0
%%%mzn-stat: AverageLearnedNogoodLength=3.979591836734694
%%%mzn-stat: AverageBacktrackAmount=0
%%%mzn-stat: AverageLbd=3.0510204081632653
%%%mzn-stat: 2AutonomousSearchNumBackupCalled=302
%%%mzn-stat: 2AutonomousSearchNumPredicatesRemoved=0
%%%mzn-stat: 2AutonomousSearchNumCalls=304
%%%mzn-stat: 2AutonomousSearchNumPredicatesAdded=264
%%%mzn-stat: 2AutonomousSearchAverageSizeOfHeap=1.0592105263157894
%%%mzn-stat: 2AutonomousSearchNumAssignedPredicatesEncountered=322
%%%mzn-stat-end
maxleg = 567;
succ = array1d(1..20,[2, 3, 6, 5, 8, 7, 10, 20, 4, 12, 13, 11, 15, 9, 16, 17, 19, 14, 18, 1]);
% time elapsed: 0.23 s
----------
%%%mzn-stat: initTime=0.004454017
%%%mzn-stat: objective=528
%%%mzn-stat: nodes=1099
%%%mzn-stat: restarts=0
%%%mzn-stat: peakDepth=176
%%%mzn-stat: solveTime=0.010553983
%%%mzn-stat: variables=370
%%%mzn-stat: propagators=252
%%%mzn-stat: failures=112
%%%mzn-stat: propagations=5824
%%%mzn-stat: nogoods=112
%%%mzn-stat: numAtomicConstraintsPropagated=0
%%%mzn-stat: allDifferentNumber1TotalHallSetSize=520
%%%mzn-stat: allDifferentNumber1NumberOfConflicts=112
%%%mzn-stat: allDifferentNumber1MaxHallSetSize=20
%%%mzn-stat: allDifferentNumber1PropagationsTotal=1010
%%%mzn-stat: allDifferentNumber1PropagationsThatFoundConflict=112
%%%mzn-stat: circuitNumber2PropagationsThatFoundConflict=0
%%%mzn-stat: circuitNumber2TotalFixedEdgesAtConflict=0
%%%mzn-stat: circuitNumber2NumberOfConflicts=0
%%%mzn-stat: circuitNumber2PropagationsThatPruned=3
%%%mzn-stat: circuitNumber2PropagationsTotal=550
%%%mzn-stat: AverageConflictSize=4.651785714285714
%%%mzn-stat: NumUnitNogoodsLearned=0
%%%mzn-stat: AverageLearnedNogoodLength=4.580357142857143
%%%mzn-stat: AverageBacktrackAmount=0
%%%mzn-stat: AverageLbd=3.330357142857143
%%%mzn-stat: 2AutonomousSearchNumBackupCalled=452
%%%mzn-stat: 2AutonomousSearchNumPredicatesRemoved=0
%%%mzn-stat: 2AutonomousSearchNumCalls=455
%%%mzn-stat: 2AutonomousSearchNumPredicatesAdded=310
%%%mzn-stat: 2AutonomousSearchAverageSizeOfHeap=1.213186813186813
%%%mzn-stat: 2AutonomousSearchNumAssignedPredicatesEncountered=552
%%%mzn-stat-end
maxleg = 528;
succ = array1d(1..20,[2, 3, 6, 5, 8, 7, 11, 20, 4, 12, 13, 16, 15, 9, 10, 17, 19, 14, 18, 1]);
% time elapsed: 0.23 s
----------
%%%mzn-stat: initTime=0.004454017
%%%mzn-stat: objective=449
%%%mzn-stat: nodes=1272
%%%mzn-stat: restarts=0
%%%mzn-stat: peakDepth=176
%%%mzn-stat: solveTime=0.011375762
%%%mzn-stat: variables=370
%%%mzn-stat: propagators=252
%%%mzn-stat: failures=118
%%%mzn-stat: propagations=6468
%%%mzn-stat: nogoods=118
%%%mzn-stat: numAtomicConstraintsPropagated=0
%%%mzn-stat: allDifferentNumber1TotalHallSetSize=542
%%%mzn-stat: allDifferentNumber1NumberOfConflicts=118
%%%mzn-stat: allDifferentNumber1MaxHallSetSize=20
%%%mzn-stat: allDifferentNumber1PropagationsTotal=1077
%%%mzn-stat: allDifferentNumber1PropagationsThatFoundConflict=118
%%%mzn-stat: circuitNumber2PropagationsThatFoundConflict=0
%%%mzn-stat: circuitNumber2TotalFixedEdgesAtConflict=0
%%%mzn-stat: circuitNumber2NumberOfConflicts=0
%%%mzn-stat: circuitNumber2PropagationsThatPruned=3
%%%mzn-stat: circuitNumber2PropagationsTotal=590
%%%mzn-stat: AverageConflictSize=4.6440677966101696
%%%mzn-stat: NumUnitNogoodsLearned=0
%%%mzn-stat: AverageLearnedNogoodLength=4.584745762711864
%%%mzn-stat: AverageBacktrackAmount=0
%%%mzn-stat: AverageLbd=3.3135593220338984
%%%mzn-stat: 2AutonomousSearchNumBackupCalled=582
%%%mzn-stat: 2AutonomousSearchNumPredicatesRemoved=0
%%%mzn-stat: 2AutonomousSearchNumCalls=586
%%%mzn-stat: 2AutonomousSearchNumPredicatesAdded=394
%%%mzn-stat: 2AutonomousSearchAverageSizeOfHeap=1.3839590443686007
%%%mzn-stat: 2AutonomousSearchNumAssignedPredicatesEncountered=811
%%%mzn-stat-end
maxleg = 449;
succ = array1d(1..20,[2, 3, 6, 5, 8, 7, 20, 9, 14, 1, 12, 10, 11, 18, 13, 15, 16, 19, 17, 4]);
% time elapsed: 0.23 s
----------
%%%mzn-stat: initTime=0.004454017
%%%mzn-stat: objective=402
%%%mzn-stat: nodes=1420
%%%mzn-stat: restarts=0
%%%mzn-stat: peakDepth=176
%%%mzn-stat: solveTime=0.011964345
%%%mzn-stat: variables=370
%%%mzn-stat: propagators=252
%%%mzn-stat: failures=121
%%%mzn-stat: propagations=7118
%%%mzn-stat: nogoods=121
%%%mzn-stat: numAtomicConstraintsPropagated=0
%%%mzn-stat: allDifferentNumber1TotalHallSetSize=548
%%%mzn-stat: allDifferentNumber1NumberOfConflicts=121
%%%mzn-stat: allDifferentNumber1MaxHallSetSize=20
%%%mzn-stat: allDifferentNumber1PropagationsTotal=1133
%%%mzn-stat: allDifferentNumber1PropagationsThatFoundConflict=121
%%%mzn-stat: circuitNumber2PropagationsThatFoundConflict=0
%%%mzn-stat: circuitNumber2TotalFixedEdgesAtConflict=0
%%%mzn-stat: circuitNumber2NumberOfConflicts=0
%%%mzn-stat: circuitNumber2PropagationsThatPruned=3
%%%mzn-stat: circuitNumber2PropagationsTotal=625
%%%mzn-stat: AverageConflictSize=4.578512396694215
%%%mzn-stat: NumUnitNogoodsLearned=0
%%%mzn-stat: AverageLearnedNogoodLength=4.520661157024794
%%%mzn-stat: AverageBacktrackAmount=0
%%%mzn-stat: AverageLbd=3.28099173553719
%%%mzn-stat: 2AutonomousSearchNumBackupCalled=691
%%%mzn-stat: 2AutonomousSearchNumPredicatesRemoved=0
%%%mzn-stat: 2AutonomousSearchNumCalls=696
%%%mzn-stat: 2AutonomousSearchNumPredicatesAdded=398
%%%mzn-stat: 2AutonomousSearchAverageSizeOfHeap=1.5373563218390804
%%%mzn-stat: 2AutonomousSearchNumAssignedPredicatesEncountered=1070
%%%mzn-stat-end
maxleg = 402;
succ = array1d(1..20,[2, 3, 6, 5, 8, 7, 20, 14, 18, 1, 12, 10, 11, 9, 13, 15, 16, 19, 17, 4]);
% time elapsed: 0.23 s
----------
==========
% time elapsed: 0.23 s
%%%mzn-stat: initTime=0.004454017
%%%mzn-stat: objective=402
%%%mzn-stat: nodes=1420
%%%mzn-stat: restarts=0
%%%mzn-stat: peakDepth=176
%%%mzn-stat: solveTime=0.012111021
%%%mzn-stat: variables=370
%%%mzn-stat: propagators=252
%%%mzn-stat: failures=122
%%%mzn-stat: propagations=7223
%%%mzn-stat: nogoods=122
%%%mzn-stat: numAtomicConstraintsPropagated=0
%%%mzn-stat: allDifferentNumber1TotalHallSetSize=568
%%%mzn-stat: allDifferentNumber1NumberOfConflicts=122
%%%mzn-stat: allDifferentNumber1MaxHallSetSize=20
%%%mzn-stat: allDifferentNumber1PropagationsTotal=1135
%%%mzn-stat: allDifferentNumber1PropagationsThatFoundConflict=122
%%%mzn-stat: circuitNumber2PropagationsThatFoundConflict=0
%%%mzn-stat: circuitNumber2TotalFixedEdgesAtConflict=0
%%%mzn-stat: circuitNumber2NumberOfConflicts=0
%%%mzn-stat: circuitNumber2PropagationsThatPruned=3
%%%mzn-stat: circuitNumber2PropagationsTotal=626
%%%mzn-stat: AverageConflictSize=4.639344262295082
%%%mzn-stat: NumUnitNogoodsLearned=1
%%%mzn-stat: AverageLearnedNogoodLength=4.491803278688525
%%%mzn-stat: AverageBacktrackAmount=0
%%%mzn-stat: AverageLbd=3.262295081967213
%%%mzn-stat: 2AutonomousSearchNumBackupCalled=691
%%%mzn-stat: 2AutonomousSearchNumPredicatesRemoved=0
%%%mzn-stat: 2AutonomousSearchNumCalls=696
%%%mzn-stat: 2AutonomousSearchNumPredicatesAdded=525
%%%mzn-stat: 2AutonomousSearchAverageSizeOfHeap=1.5373563218390804
%%%mzn-stat: 2AutonomousSearchNumAssignedPredicatesEncountered=1070
%%%mzn-stat-end
